150 574606464
109 99 127 56 86 4 147 77 52 111 85 30 15 69 51 65 66 84 89 71 145 118 115 113 10 31 7 70 11 43 62 129 17 3 67 135 75 2 139 138 55 124 1 120 78 35 106 61 76 126 46 18 98 137 100 117 116 44 23 25 148 149 33 37 125 112 41 48 68 122 74 34 36 87 104 95 132 81 150 63 27 133 107 103 101 58 47 83 42 38 5 102 8 21 20 105 28 88 50 22 13 130 64 73 26 91 79 121 108 57 24 53 92 97 14 128 54 140 82 49 94 131 134 110 9 93 119 60 80 142 136 143 72 6 40 12 96 146 39 141 45 90 144 29 16 114 19 123 59 32 
